(set-info :category "industrial")
(set-info :status sat)
(declare-fun x00 () (_ BitVec 8))
(declare-fun x02 () (_ BitVec 8))
(declare-fun x05 () (_ BitVec 8))
(declare-fun x06 () (_ BitVec 8))
(declare-fun x08 () (_ BitVec 8))
(declare-fun x10 () (_ BitVec 8))
(declare-fun x11 () (_ BitVec 8))
(declare-fun x12 () (_ BitVec 8))
(declare-fun x14 () (_ BitVec 8))
(declare-fun x15 () (_ BitVec 8))
(declare-fun x16 () (_ BitVec 8))
(declare-fun x17 () (_ BitVec 8))
(declare-fun x20 () (_ BitVec 8))
(declare-fun x23 () (_ BitVec 8))
(declare-fun x24 () (_ BitVec 8))
(declare-fun x27 () (_ BitVec 8))
(declare-fun x28 () (_ BitVec 8))
(declare-fun x30 () (_ BitVec 8))
(declare-fun x31 () (_ BitVec 8))
(declare-fun x32 () (_ BitVec 8))
(declare-fun x33 () (_ BitVec 8))
(declare-fun x34 () (_ BitVec 8))
(declare-fun x35 () (_ BitVec 8))
(declare-fun x36 () (_ BitVec 8))
(declare-fun x41 () (_ BitVec 8))
(declare-fun x43 () (_ BitVec 8))
(declare-fun x45 () (_ BitVec 8))
(declare-fun x47 () (_ BitVec 8))
(declare-fun x50 () (_ BitVec 8))
(declare-fun x52 () (_ BitVec 8))
(declare-fun x55 () (_ BitVec 8))
(declare-fun x57 () (_ BitVec 8))
(declare-fun x58 () (_ BitVec 8))
(declare-fun x61 () (_ BitVec 8))
(declare-fun x62 () (_ BitVec 8))
(declare-fun x64 () (_ BitVec 8))
(declare-fun x65 () (_ BitVec 8))
(declare-fun x68 () (_ BitVec 8))
(declare-fun x72 () (_ BitVec 8))
(declare-fun x73 () (_ BitVec 8))
(declare-fun x75 () (_ BitVec 8))
(declare-fun x80 () (_ BitVec 8))
(declare-fun x81 () (_ BitVec 8))
(declare-fun x83 () (_ BitVec 8))
(declare-fun x84 () (_ BitVec 8))
(declare-fun x85 () (_ BitVec 8))
(declare-fun x86 () (_ BitVec 8))
(declare-fun x88 () (_ BitVec 8))
(assert (bvult x00 (_ bv9 8)))
(assert (bvult x02 (_ bv9 8)))
(assert (bvult x05 (_ bv9 8)))
(assert (bvult x06 (_ bv9 8)))
(assert (bvult x08 (_ bv9 8)))
(assert (bvult x10 (_ bv9 8)))
(assert (bvult x11 (_ bv9 8)))
(assert (bvult x12 (_ bv9 8)))
(assert (bvult x14 (_ bv9 8)))
(assert (bvult x15 (_ bv9 8)))
(assert (bvult x16 (_ bv9 8)))
(assert (bvult x17 (_ bv9 8)))
(assert (bvult x20 (_ bv9 8)))
(assert (bvult x23 (_ bv9 8)))
(assert (bvult x24 (_ bv9 8)))
(assert (bvult x27 (_ bv9 8)))
(assert (bvult x28 (_ bv9 8)))
(assert (bvult x30 (_ bv9 8)))
(assert (bvult x31 (_ bv9 8)))
(assert (bvult x32 (_ bv9 8)))
(assert (bvult x33 (_ bv9 8)))
(assert (bvult x34 (_ bv9 8)))
(assert (bvult x35 (_ bv9 8)))
(assert (bvult x36 (_ bv9 8)))
(assert (bvult x41 (_ bv9 8)))
(assert (bvult x43 (_ bv9 8)))
(assert (bvult x45 (_ bv9 8)))
(assert (bvult x47 (_ bv9 8)))
(assert (bvult x50 (_ bv9 8)))
(assert (bvult x52 (_ bv9 8)))
(assert (bvult x55 (_ bv9 8)))
(assert (bvult x57 (_ bv9 8)))
(assert (bvult x58 (_ bv9 8)))
(assert (bvult x61 (_ bv9 8)))
(assert (bvult x62 (_ bv9 8)))
(assert (bvult x64 (_ bv9 8)))
(assert (bvult x65 (_ bv9 8)))
(assert (bvult x68 (_ bv9 8)))
(assert (bvult x72 (_ bv9 8)))
(assert (bvult x73 (_ bv9 8)))
(assert (bvult x75 (_ bv9 8)))
(assert (bvult x80 (_ bv9 8)))
(assert (bvult x81 (_ bv9 8)))
(assert (bvult x83 (_ bv9 8)))
(assert (bvult x84 (_ bv9 8)))
(assert (bvult x85 (_ bv9 8)))
(assert (bvult x86 (_ bv9 8)))
(assert (bvult x88 (_ bv9 8)))
(assert (not (= x00 (_ bv5 8))))
(assert (not (= x00 x02)))
(assert (not (= x00 (_ bv7 8))))
(assert (not (= x00 (_ bv6 8))))
(assert (not (= x00 x05)))
(assert (not (= x00 x06)))
(assert (not (= x00 (_ bv9 8))))
(assert (not (= x00 x08)))
(assert (not (= (_ bv5 8) x02)))
(assert (not (= (_ bv5 8) (_ bv7 8))))
(assert (not (= (_ bv5 8) (_ bv6 8))))
(assert (not (= (_ bv5 8) x05)))
(assert (not (= (_ bv5 8) x06)))
(assert (not (= (_ bv5 8) (_ bv9 8))))
(assert (not (= (_ bv5 8) x08)))
(assert (not (= x02 (_ bv7 8))))
(assert (not (= x02 (_ bv6 8))))
(assert (not (= x02 x05)))
(assert (not (= x02 x06)))
(assert (not (= x02 (_ bv9 8))))
(assert (not (= x02 x08)))
(assert (not (= (_ bv7 8) (_ bv6 8))))
(assert (not (= (_ bv7 8) x05)))
(assert (not (= (_ bv7 8) x06)))
(assert (not (= (_ bv7 8) (_ bv9 8))))
(assert (not (= (_ bv7 8) x08)))
(assert (not (= (_ bv6 8) x05)))
(assert (not (= (_ bv6 8) x06)))
(assert (not (= (_ bv6 8) (_ bv9 8))))
(assert (not (= (_ bv6 8) x08)))
(assert (not (= x05 x06)))
(assert (not (= x05 (_ bv9 8))))
(assert (not (= x05 x08)))
(assert (not (= x06 (_ bv9 8))))
(assert (not (= x06 x08)))
(assert (not (= (_ bv9 8) x08)))
(assert (not (= x10 x11)))
(assert (not (= x10 x12)))
(assert (not (= x10 (_ bv8 8))))
(assert (not (= x10 x14)))
(assert (not (= x10 x15)))
(assert (not (= x10 x16)))
(assert (not (= x10 x17)))
(assert (not (= x10 (_ bv3 8))))
(assert (not (= x11 x12)))
(assert (not (= x11 (_ bv8 8))))
(assert (not (= x11 x14)))
(assert (not (= x11 x15)))
(assert (not (= x11 x16)))
(assert (not (= x11 x17)))
(assert (not (= x11 (_ bv3 8))))
(assert (not (= x12 (_ bv8 8))))
(assert (not (= x12 x14)))
(assert (not (= x12 x15)))
(assert (not (= x12 x16)))
(assert (not (= x12 x17)))
(assert (not (= x12 (_ bv3 8))))
(assert (not (= (_ bv8 8) x14)))
(assert (not (= (_ bv8 8) x15)))
(assert (not (= (_ bv8 8) x16)))
(assert (not (= (_ bv8 8) x17)))
(assert (not (= (_ bv8 8) (_ bv3 8))))
(assert (not (= x14 x15)))
(assert (not (= x14 x16)))
(assert (not (= x14 x17)))
(assert (not (= x14 (_ bv3 8))))
(assert (not (= x15 x16)))
(assert (not (= x15 x17)))
(assert (not (= x15 (_ bv3 8))))
(assert (not (= x16 x17)))
(assert (not (= x16 (_ bv3 8))))
(assert (not (= x17 (_ bv3 8))))
(assert (not (= x20 (_ bv4 8))))
(assert (not (= x20 (_ bv2 8))))
(assert (not (= x20 x23)))
(assert (not (= x20 x24)))
(assert (not (= x20 (_ bv1 8))))
(assert (not (= x20 (_ bv5 8))))
(assert (not (= x20 x27)))
(assert (not (= x20 x28)))
(assert (not (= (_ bv4 8) (_ bv2 8))))
(assert (not (= (_ bv4 8) x23)))
(assert (not (= (_ bv4 8) x24)))
(assert (not (= (_ bv4 8) (_ bv1 8))))
(assert (not (= (_ bv4 8) (_ bv5 8))))
(assert (not (= (_ bv4 8) x27)))
(assert (not (= (_ bv4 8) x28)))
(assert (not (= (_ bv2 8) x23)))
(assert (not (= (_ bv2 8) x24)))
(assert (not (= (_ bv2 8) (_ bv1 8))))
(assert (not (= (_ bv2 8) (_ bv5 8))))
(assert (not (= (_ bv2 8) x27)))
(assert (not (= (_ bv2 8) x28)))
(assert (not (= x23 x24)))
(assert (not (= x23 (_ bv1 8))))
(assert (not (= x23 (_ bv5 8))))
(assert (not (= x23 x27)))
(assert (not (= x23 x28)))
(assert (not (= x24 (_ bv1 8))))
(assert (not (= x24 (_ bv5 8))))
(assert (not (= x24 x27)))
(assert (not (= x24 x28)))
(assert (not (= (_ bv1 8) (_ bv5 8))))
(assert (not (= (_ bv1 8) x27)))
(assert (not (= (_ bv1 8) x28)))
(assert (not (= (_ bv5 8) x27)))
(assert (not (= (_ bv5 8) x28)))
(assert (not (= x27 x28)))
(assert (not (= x30 x31)))
(assert (not (= x30 x32)))
(assert (not (= x30 x33)))
(assert (not (= x30 x34)))
(assert (not (= x30 x35)))
(assert (not (= x30 x36)))
(assert (not (= x30 (_ bv3 8))))
(assert (not (= x30 (_ bv4 8))))
(assert (not (= x31 x32)))
(assert (not (= x31 x33)))
(assert (not (= x31 x34)))
(assert (not (= x31 x35)))
(assert (not (= x31 x36)))
(assert (not (= x31 (_ bv3 8))))
(assert (not (= x31 (_ bv4 8))))
(assert (not (= x32 x33)))
(assert (not (= x32 x34)))
(assert (not (= x32 x35)))
(assert (not (= x32 x36)))
(assert (not (= x32 (_ bv3 8))))
(assert (not (= x32 (_ bv4 8))))
(assert (not (= x33 x34)))
(assert (not (= x33 x35)))
(assert (not (= x33 x36)))
(assert (not (= x33 (_ bv3 8))))
(assert (not (= x33 (_ bv4 8))))
(assert (not (= x34 x35)))
(assert (not (= x34 x36)))
(assert (not (= x34 (_ bv3 8))))
(assert (not (= x34 (_ bv4 8))))
(assert (not (= x35 x36)))
(assert (not (= x35 (_ bv3 8))))
(assert (not (= x35 (_ bv4 8))))
(assert (not (= x36 (_ bv3 8))))
(assert (not (= x36 (_ bv4 8))))
(assert (not (= (_ bv3 8) (_ bv4 8))))
(assert (not (= (_ bv9 8) x41)))
(assert (not (= (_ bv9 8) (_ bv4 8))))
(assert (not (= (_ bv9 8) x43)))
(assert (not (= (_ bv9 8) (_ bv7 8))))
(assert (not (= (_ bv9 8) x45)))
(assert (not (= (_ bv9 8) (_ bv2 8))))
(assert (not (= (_ bv9 8) x47)))
(assert (not (= (_ bv9 8) (_ bv6 8))))
(assert (not (= x41 (_ bv4 8))))
(assert (not (= x41 x43)))
(assert (not (= x41 (_ bv7 8))))
(assert (not (= x41 x45)))
(assert (not (= x41 (_ bv2 8))))
(assert (not (= x41 x47)))
(assert (not (= x41 (_ bv6 8))))
(assert (not (= (_ bv4 8) x43)))
(assert (not (= (_ bv4 8) (_ bv7 8))))
(assert (not (= (_ bv4 8) x45)))
(assert (not (= (_ bv4 8) (_ bv2 8))))
(assert (not (= (_ bv4 8) x47)))
(assert (not (= (_ bv4 8) (_ bv6 8))))
(assert (not (= x43 (_ bv7 8))))
(assert (not (= x43 x45)))
(assert (not (= x43 (_ bv2 8))))
(assert (not (= x43 x47)))
(assert (not (= x43 (_ bv6 8))))
(assert (not (= (_ bv7 8) x45)))
(assert (not (= (_ bv7 8) (_ bv2 8))))
(assert (not (= (_ bv7 8) x47)))
(assert (not (= (_ bv7 8) (_ bv6 8))))
(assert (not (= x45 (_ bv2 8))))
(assert (not (= x45 x47)))
(assert (not (= x45 (_ bv6 8))))
(assert (not (= (_ bv2 8) x47)))
(assert (not (= (_ bv2 8) (_ bv6 8))))
(assert (not (= x47 (_ bv6 8))))
(assert (not (= x50 (_ bv1 8))))
(assert (not (= x50 x52)))
(assert (not (= x50 (_ bv6 8))))
(assert (not (= x50 (_ bv8 8))))
(assert (not (= x50 x55)))
(assert (not (= x50 (_ bv9 8))))
(assert (not (= x50 x57)))
(assert (not (= x50 x58)))
(assert (not (= (_ bv1 8) x52)))
(assert (not (= (_ bv1 8) (_ bv6 8))))
(assert (not (= (_ bv1 8) (_ bv8 8))))
(assert (not (= (_ bv1 8) x55)))
(assert (not (= (_ bv1 8) (_ bv9 8))))
(assert (not (= (_ bv1 8) x57)))
(assert (not (= (_ bv1 8) x58)))
(assert (not (= x52 (_ bv6 8))))
(assert (not (= x52 (_ bv8 8))))
(assert (not (= x52 x55)))
(assert (not (= x52 (_ bv9 8))))
(assert (not (= x52 x57)))
(assert (not (= x52 x58)))
(assert (not (= (_ bv6 8) (_ bv8 8))))
(assert (not (= (_ bv6 8) x55)))
(assert (not (= (_ bv6 8) (_ bv9 8))))
(assert (not (= (_ bv6 8) x57)))
(assert (not (= (_ bv6 8) x58)))
(assert (not (= (_ bv8 8) x55)))
(assert (not (= (_ bv8 8) (_ bv9 8))))
(assert (not (= (_ bv8 8) x57)))
(assert (not (= (_ bv8 8) x58)))
(assert (not (= x55 (_ bv9 8))))
(assert (not (= x55 x57)))
(assert (not (= x55 x58)))
(assert (not (= (_ bv9 8) x57)))
(assert (not (= (_ bv9 8) x58)))
(assert (not (= x57 x58)))
(assert (not (= (_ bv8 8) x61)))
(assert (not (= (_ bv8 8) x62)))
(assert (not (= (_ bv8 8) (_ bv9 8))))
(assert (not (= (_ bv8 8) x64)))
(assert (not (= (_ bv8 8) x65)))
(assert (not (= (_ bv8 8) (_ bv3 8))))
(assert (not (= (_ bv8 8) (_ bv4 8))))
(assert (not (= (_ bv8 8) x68)))
(assert (not (= x61 x62)))
(assert (not (= x61 (_ bv9 8))))
(assert (not (= x61 x64)))
(assert (not (= x61 x65)))
(assert (not (= x61 (_ bv3 8))))
(assert (not (= x61 (_ bv4 8))))
(assert (not (= x61 x68)))
(assert (not (= x62 (_ bv9 8))))
(assert (not (= x62 x64)))
(assert (not (= x62 x65)))
(assert (not (= x62 (_ bv3 8))))
(assert (not (= x62 (_ bv4 8))))
(assert (not (= x62 x68)))
(assert (not (= (_ bv9 8) x64)))
(assert (not (= (_ bv9 8) x65)))
(assert (not (= (_ bv9 8) (_ bv3 8))))
(assert (not (= (_ bv9 8) (_ bv4 8))))
(assert (not (= (_ bv9 8) x68)))
(assert (not (= x64 x65)))
(assert (not (= x64 (_ bv3 8))))
(assert (not (= x64 (_ bv4 8))))
(assert (not (= x64 x68)))
(assert (not (= x65 (_ bv3 8))))
(assert (not (= x65 (_ bv4 8))))
(assert (not (= x65 x68)))
(assert (not (= (_ bv3 8) (_ bv4 8))))
(assert (not (= (_ bv3 8) x68)))
(assert (not (= (_ bv4 8) x68)))
(assert (not (= (_ bv6 8) (_ bv3 8))))
(assert (not (= (_ bv6 8) x72)))
(assert (not (= (_ bv6 8) x73)))
(assert (not (= (_ bv6 8) (_ bv2 8))))
(assert (not (= (_ bv6 8) x75)))
(assert (not (= (_ bv6 8) (_ bv1 8))))
(assert (not (= (_ bv6 8) (_ bv8 8))))
(assert (not (= (_ bv6 8) (_ bv9 8))))
(assert (not (= (_ bv3 8) x72)))
(assert (not (= (_ bv3 8) x73)))
(assert (not (= (_ bv3 8) (_ bv2 8))))
(assert (not (= (_ bv3 8) x75)))
(assert (not (= (_ bv3 8) (_ bv1 8))))
(assert (not (= (_ bv3 8) (_ bv8 8))))
(assert (not (= (_ bv3 8) (_ bv9 8))))
(assert (not (= x72 x73)))
(assert (not (= x72 (_ bv2 8))))
(assert (not (= x72 x75)))
(assert (not (= x72 (_ bv1 8))))
(assert (not (= x72 (_ bv8 8))))
(assert (not (= x72 (_ bv9 8))))
(assert (not (= x73 (_ bv2 8))))
(assert (not (= x73 x75)))
(assert (not (= x73 (_ bv1 8))))
(assert (not (= x73 (_ bv8 8))))
(assert (not (= x73 (_ bv9 8))))
(assert (not (= (_ bv2 8) x75)))
(assert (not (= (_ bv2 8) (_ bv1 8))))
(assert (not (= (_ bv2 8) (_ bv8 8))))
(assert (not (= (_ bv2 8) (_ bv9 8))))
(assert (not (= x75 (_ bv1 8))))
(assert (not (= x75 (_ bv8 8))))
(assert (not (= x75 (_ bv9 8))))
(assert (not (= (_ bv1 8) (_ bv8 8))))
(assert (not (= (_ bv1 8) (_ bv9 8))))
(assert (not (= (_ bv8 8) (_ bv9 8))))
(assert (not (= x80 x81)))
(assert (not (= x80 (_ bv7 8))))
(assert (not (= x80 x83)))
(assert (not (= x80 x84)))
(assert (not (= x80 x85)))
(assert (not (= x80 x86)))
(assert (not (= x80 (_ bv5 8))))
(assert (not (= x80 x88)))
(assert (not (= x81 (_ bv7 8))))
(assert (not (= x81 x83)))
(assert (not (= x81 x84)))
(assert (not (= x81 x85)))
(assert (not (= x81 x86)))
(assert (not (= x81 (_ bv5 8))))
(assert (not (= x81 x88)))
(assert (not (= (_ bv7 8) x83)))
(assert (not (= (_ bv7 8) x84)))
(assert (not (= (_ bv7 8) x85)))
(assert (not (= (_ bv7 8) x86)))
(assert (not (= (_ bv7 8) (_ bv5 8))))
(assert (not (= (_ bv7 8) x88)))
(assert (not (= x83 x84)))
(assert (not (= x83 x85)))
(assert (not (= x83 x86)))
(assert (not (= x83 (_ bv5 8))))
(assert (not (= x83 x88)))
(assert (not (= x84 x85)))
(assert (not (= x84 x86)))
(assert (not (= x84 (_ bv5 8))))
(assert (not (= x84 x88)))
(assert (not (= x85 x86)))
(assert (not (= x85 (_ bv5 8))))
(assert (not (= x85 x88)))
(assert (not (= x86 (_ bv5 8))))
(assert (not (= x86 x88)))
(assert (not (= (_ bv5 8) x88)))
(assert (not (= x00 x10)))
(assert (not (= x00 x20)))
(assert (not (= x00 x30)))
(assert (not (= x00 (_ bv9 8))))
(assert (not (= x00 x50)))
(assert (not (= x00 (_ bv8 8))))
(assert (not (= x00 (_ bv6 8))))
(assert (not (= x00 x80)))
(assert (not (= x10 x20)))
(assert (not (= x10 x30)))
(assert (not (= x10 (_ bv9 8))))
(assert (not (= x10 x50)))
(assert (not (= x10 (_ bv8 8))))
(assert (not (= x10 (_ bv6 8))))
(assert (not (= x10 x80)))
(assert (not (= x20 x30)))
(assert (not (= x20 (_ bv9 8))))
(assert (not (= x20 x50)))
(assert (not (= x20 (_ bv8 8))))
(assert (not (= x20 (_ bv6 8))))
(assert (not (= x20 x80)))
(assert (not (= x30 (_ bv9 8))))
(assert (not (= x30 x50)))
(assert (not (= x30 (_ bv8 8))))
(assert (not (= x30 (_ bv6 8))))
(assert (not (= x30 x80)))
(assert (not (= (_ bv9 8) x50)))
(assert (not (= (_ bv9 8) (_ bv8 8))))
(assert (not (= (_ bv9 8) (_ bv6 8))))
(assert (not (= (_ bv9 8) x80)))
(assert (not (= x50 (_ bv8 8))))
(assert (not (= x50 (_ bv6 8))))
(assert (not (= x50 x80)))
(assert (not (= (_ bv8 8) (_ bv6 8))))
(assert (not (= (_ bv8 8) x80)))
(assert (not (= (_ bv6 8) x80)))
(assert (not (= (_ bv5 8) x11)))
(assert (not (= (_ bv5 8) (_ bv4 8))))
(assert (not (= (_ bv5 8) x31)))
(assert (not (= (_ bv5 8) x41)))
(assert (not (= (_ bv5 8) (_ bv1 8))))
(assert (not (= (_ bv5 8) x61)))
(assert (not (= (_ bv5 8) (_ bv3 8))))
(assert (not (= (_ bv5 8) x81)))
(assert (not (= x11 (_ bv4 8))))
(assert (not (= x11 x31)))
(assert (not (= x11 x41)))
(assert (not (= x11 (_ bv1 8))))
(assert (not (= x11 x61)))
(assert (not (= x11 (_ bv3 8))))
(assert (not (= x11 x81)))
(assert (not (= (_ bv4 8) x31)))
(assert (not (= (_ bv4 8) x41)))
(assert (not (= (_ bv4 8) (_ bv1 8))))
(assert (not (= (_ bv4 8) x61)))
(assert (not (= (_ bv4 8) (_ bv3 8))))
(assert (not (= (_ bv4 8) x81)))
(assert (not (= x31 x41)))
(assert (not (= x31 (_ bv1 8))))
(assert (not (= x31 x61)))
(assert (not (= x31 (_ bv3 8))))
(assert (not (= x31 x81)))
(assert (not (= x41 (_ bv1 8))))
(assert (not (= x41 x61)))
(assert (not (= x41 (_ bv3 8))))
(assert (not (= x41 x81)))
(assert (not (= (_ bv1 8) x61)))
(assert (not (= (_ bv1 8) (_ bv3 8))))
(assert (not (= (_ bv1 8) x81)))
(assert (not (= x61 (_ bv3 8))))
(assert (not (= x61 x81)))
(assert (not (= (_ bv3 8) x81)))
(assert (not (= x02 x12)))
(assert (not (= x02 (_ bv2 8))))
(assert (not (= x02 x32)))
(assert (not (= x02 (_ bv4 8))))
(assert (not (= x02 x52)))
(assert (not (= x02 x62)))
(assert (not (= x02 x72)))
(assert (not (= x02 (_ bv7 8))))
(assert (not (= x12 (_ bv2 8))))
(assert (not (= x12 x32)))
(assert (not (= x12 (_ bv4 8))))
(assert (not (= x12 x52)))
(assert (not (= x12 x62)))
(assert (not (= x12 x72)))
(assert (not (= x12 (_ bv7 8))))
(assert (not (= (_ bv2 8) x32)))
(assert (not (= (_ bv2 8) (_ bv4 8))))
(assert (not (= (_ bv2 8) x52)))
(assert (not (= (_ bv2 8) x62)))
(assert (not (= (_ bv2 8) x72)))
(assert (not (= (_ bv2 8) (_ bv7 8))))
(assert (not (= x32 (_ bv4 8))))
(assert (not (= x32 x52)))
(assert (not (= x32 x62)))
(assert (not (= x32 x72)))
(assert (not (= x32 (_ bv7 8))))
(assert (not (= (_ bv4 8) x52)))
(assert (not (= (_ bv4 8) x62)))
(assert (not (= (_ bv4 8) x72)))
(assert (not (= (_ bv4 8) (_ bv7 8))))
(assert (not (= x52 x62)))
(assert (not (= x52 x72)))
(assert (not (= x52 (_ bv7 8))))
(assert (not (= x62 x72)))
(assert (not (= x62 (_ bv7 8))))
(assert (not (= x72 (_ bv7 8))))
(assert (not (= (_ bv7 8) (_ bv8 8))))
(assert (not (= (_ bv7 8) x23)))
(assert (not (= (_ bv7 8) x33)))
(assert (not (= (_ bv7 8) x43)))
(assert (not (= (_ bv7 8) (_ bv6 8))))
(assert (not (= (_ bv7 8) (_ bv9 8))))
(assert (not (= (_ bv7 8) x73)))
(assert (not (= (_ bv7 8) x83)))
(assert (not (= (_ bv8 8) x23)))
(assert (not (= (_ bv8 8) x33)))
(assert (not (= (_ bv8 8) x43)))
(assert (not (= (_ bv8 8) (_ bv6 8))))
(assert (not (= (_ bv8 8) (_ bv9 8))))
(assert (not (= (_ bv8 8) x73)))
(assert (not (= (_ bv8 8) x83)))
(assert (not (= x23 x33)))
(assert (not (= x23 x43)))
(assert (not (= x23 (_ bv6 8))))
(assert (not (= x23 (_ bv9 8))))
(assert (not (= x23 x73)))
(assert (not (= x23 x83)))
(assert (not (= x33 x43)))
(assert (not (= x33 (_ bv6 8))))
(assert (not (= x33 (_ bv9 8))))
(assert (not (= x33 x73)))
(assert (not (= x33 x83)))
(assert (not (= x43 (_ bv6 8))))
(assert (not (= x43 (_ bv9 8))))
(assert (not (= x43 x73)))
(assert (not (= x43 x83)))
(assert (not (= (_ bv6 8) (_ bv9 8))))
(assert (not (= (_ bv6 8) x73)))
(assert (not (= (_ bv6 8) x83)))
(assert (not (= (_ bv9 8) x73)))
(assert (not (= (_ bv9 8) x83)))
(assert (not (= x73 x83)))
(assert (not (= (_ bv6 8) x14)))
(assert (not (= (_ bv6 8) x24)))
(assert (not (= (_ bv6 8) x34)))
(assert (not (= (_ bv6 8) (_ bv7 8))))
(assert (not (= (_ bv6 8) (_ bv8 8))))
(assert (not (= (_ bv6 8) x64)))
(assert (not (= (_ bv6 8) (_ bv2 8))))
(assert (not (= (_ bv6 8) x84)))
(assert (not (= x14 x24)))
(assert (not (= x14 x34)))
(assert (not (= x14 (_ bv7 8))))
(assert (not (= x14 (_ bv8 8))))
(assert (not (= x14 x64)))
(assert (not (= x14 (_ bv2 8))))
(assert (not (= x14 x84)))
(assert (not (= x24 x34)))
(assert (not (= x24 (_ bv7 8))))
(assert (not (= x24 (_ bv8 8))))
(assert (not (= x24 x64)))
(assert (not (= x24 (_ bv2 8))))
(assert (not (= x24 x84)))
(assert (not (= x34 (_ bv7 8))))
(assert (not (= x34 (_ bv8 8))))
(assert (not (= x34 x64)))
(assert (not (= x34 (_ bv2 8))))
(assert (not (= x34 x84)))
(assert (not (= (_ bv7 8) (_ bv8 8))))
(assert (not (= (_ bv7 8) x64)))
(assert (not (= (_ bv7 8) (_ bv2 8))))
(assert (not (= (_ bv7 8) x84)))
(assert (not (= (_ bv8 8) x64)))
(assert (not (= (_ bv8 8) (_ bv2 8))))
(assert (not (= (_ bv8 8) x84)))
(assert (not (= x64 (_ bv2 8))))
(assert (not (= x64 x84)))
(assert (not (= (_ bv2 8) x84)))
(assert (not (= x05 x15)))
(assert (not (= x05 (_ bv1 8))))
(assert (not (= x05 x35)))
(assert (not (= x05 x45)))
(assert (not (= x05 x55)))
(assert (not (= x05 x65)))
(assert (not (= x05 x75)))
(assert (not (= x05 x85)))
(assert (not (= x15 (_ bv1 8))))
(assert (not (= x15 x35)))
(assert (not (= x15 x45)))
(assert (not (= x15 x55)))
(assert (not (= x15 x65)))
(assert (not (= x15 x75)))
(assert (not (= x15 x85)))
(assert (not (= (_ bv1 8) x35)))
(assert (not (= (_ bv1 8) x45)))
(assert (not (= (_ bv1 8) x55)))
(assert (not (= (_ bv1 8) x65)))
(assert (not (= (_ bv1 8) x75)))
(assert (not (= (_ bv1 8) x85)))
(assert (not (= x35 x45)))
(assert (not (= x35 x55)))
(assert (not (= x35 x65)))
(assert (not (= x35 x75)))
(assert (not (= x35 x85)))
(assert (not (= x45 x55)))
(assert (not (= x45 x65)))
(assert (not (= x45 x75)))
(assert (not (= x45 x85)))
(assert (not (= x55 x65)))
(assert (not (= x55 x75)))
(assert (not (= x55 x85)))
(assert (not (= x65 x75)))
(assert (not (= x65 x85)))
(assert (not (= x75 x85)))
(assert (not (= x06 x16)))
(assert (not (= x06 (_ bv5 8))))
(assert (not (= x06 x36)))
(assert (not (= x06 (_ bv2 8))))
(assert (not (= x06 (_ bv9 8))))
(assert (not (= x06 (_ bv3 8))))
(assert (not (= x06 (_ bv1 8))))
(assert (not (= x06 x86)))
(assert (not (= x16 (_ bv5 8))))
(assert (not (= x16 x36)))
(assert (not (= x16 (_ bv2 8))))
(assert (not (= x16 (_ bv9 8))))
(assert (not (= x16 (_ bv3 8))))
(assert (not (= x16 (_ bv1 8))))
(assert (not (= x16 x86)))
(assert (not (= (_ bv5 8) x36)))
(assert (not (= (_ bv5 8) (_ bv2 8))))
(assert (not (= (_ bv5 8) (_ bv9 8))))
(assert (not (= (_ bv5 8) (_ bv3 8))))
(assert (not (= (_ bv5 8) (_ bv1 8))))
(assert (not (= (_ bv5 8) x86)))
(assert (not (= x36 (_ bv2 8))))
(assert (not (= x36 (_ bv9 8))))
(assert (not (= x36 (_ bv3 8))))
(assert (not (= x36 (_ bv1 8))))
(assert (not (= x36 x86)))
(assert (not (= (_ bv2 8) (_ bv9 8))))
(assert (not (= (_ bv2 8) (_ bv3 8))))
(assert (not (= (_ bv2 8) (_ bv1 8))))
(assert (not (= (_ bv2 8) x86)))
(assert (not (= (_ bv9 8) (_ bv3 8))))
(assert (not (= (_ bv9 8) (_ bv1 8))))
(assert (not (= (_ bv9 8) x86)))
(assert (not (= (_ bv3 8) (_ bv1 8))))
(assert (not (= (_ bv3 8) x86)))
(assert (not (= (_ bv1 8) x86)))
(assert (not (= (_ bv9 8) x17)))
(assert (not (= (_ bv9 8) x27)))
(assert (not (= (_ bv9 8) (_ bv3 8))))
(assert (not (= (_ bv9 8) x47)))
(assert (not (= (_ bv9 8) x57)))
(assert (not (= (_ bv9 8) (_ bv4 8))))
(assert (not (= (_ bv9 8) (_ bv8 8))))
(assert (not (= (_ bv9 8) (_ bv5 8))))
(assert (not (= x17 x27)))
(assert (not (= x17 (_ bv3 8))))
(assert (not (= x17 x47)))
(assert (not (= x17 x57)))
(assert (not (= x17 (_ bv4 8))))
(assert (not (= x17 (_ bv8 8))))
(assert (not (= x17 (_ bv5 8))))
(assert (not (= x27 (_ bv3 8))))
(assert (not (= x27 x47)))
(assert (not (= x27 x57)))
(assert (not (= x27 (_ bv4 8))))
(assert (not (= x27 (_ bv8 8))))
(assert (not (= x27 (_ bv5 8))))
(assert (not (= (_ bv3 8) x47)))
(assert (not (= (_ bv3 8) x57)))
(assert (not (= (_ bv3 8) (_ bv4 8))))
(assert (not (= (_ bv3 8) (_ bv8 8))))
(assert (not (= (_ bv3 8) (_ bv5 8))))
(assert (not (= x47 x57)))
(assert (not (= x47 (_ bv4 8))))
(assert (not (= x47 (_ bv8 8))))
(assert (not (= x47 (_ bv5 8))))
(assert (not (= x57 (_ bv4 8))))
(assert (not (= x57 (_ bv8 8))))
(assert (not (= x57 (_ bv5 8))))
(assert (not (= (_ bv4 8) (_ bv8 8))))
(assert (not (= (_ bv4 8) (_ bv5 8))))
(assert (not (= (_ bv8 8) (_ bv5 8))))
(assert (not (= x08 (_ bv3 8))))
(assert (not (= x08 x28)))
(assert (not (= x08 (_ bv4 8))))
(assert (not (= x08 (_ bv6 8))))
(assert (not (= x08 x58)))
(assert (not (= x08 x68)))
(assert (not (= x08 (_ bv9 8))))
(assert (not (= x08 x88)))
(assert (not (= (_ bv3 8) x28)))
(assert (not (= (_ bv3 8) (_ bv4 8))))
(assert (not (= (_ bv3 8) (_ bv6 8))))
(assert (not (= (_ bv3 8) x58)))
(assert (not (= (_ bv3 8) x68)))
(assert (not (= (_ bv3 8) (_ bv9 8))))
(assert (not (= (_ bv3 8) x88)))
(assert (not (= x28 (_ bv4 8))))
(assert (not (= x28 (_ bv6 8))))
(assert (not (= x28 x58)))
(assert (not (= x28 x68)))
(assert (not (= x28 (_ bv9 8))))
(assert (not (= x28 x88)))
(assert (not (= (_ bv4 8) (_ bv6 8))))
(assert (not (= (_ bv4 8) x58)))
(assert (not (= (_ bv4 8) x68)))
(assert (not (= (_ bv4 8) (_ bv9 8))))
(assert (not (= (_ bv4 8) x88)))
(assert (not (= (_ bv6 8) x58)))
(assert (not (= (_ bv6 8) x68)))
(assert (not (= (_ bv6 8) (_ bv9 8))))
(assert (not (= (_ bv6 8) x88)))
(assert (not (= x58 x68)))
(assert (not (= x58 (_ bv9 8))))
(assert (not (= x58 x88)))
(assert (not (= x68 (_ bv9 8))))
(assert (not (= x68 x88)))
(assert (not (= (_ bv9 8) x88)))
(assert (not (= x00 (_ bv5 8))))
(assert (not (= x00 x02)))
(assert (not (= x00 x10)))
(assert (not (= x00 x11)))
(assert (not (= x00 x12)))
(assert (not (= x00 x20)))
(assert (not (= x00 (_ bv4 8))))
(assert (not (= x00 (_ bv2 8))))
(assert (not (= (_ bv5 8) x02)))
(assert (not (= (_ bv5 8) x10)))
(assert (not (= (_ bv5 8) x11)))
(assert (not (= (_ bv5 8) x12)))
(assert (not (= (_ bv5 8) x20)))
(assert (not (= (_ bv5 8) (_ bv4 8))))
(assert (not (= (_ bv5 8) (_ bv2 8))))
(assert (not (= x02 x10)))
(assert (not (= x02 x11)))
(assert (not (= x02 x12)))
(assert (not (= x02 x20)))
(assert (not (= x02 (_ bv4 8))))
(assert (not (= x02 (_ bv2 8))))
(assert (not (= x10 x11)))
(assert (not (= x10 x12)))
(assert (not (= x10 x20)))
(assert (not (= x10 (_ bv4 8))))
(assert (not (= x10 (_ bv2 8))))
(assert (not (= x11 x12)))
(assert (not (= x11 x20)))
(assert (not (= x11 (_ bv4 8))))
(assert (not (= x11 (_ bv2 8))))
(assert (not (= x12 x20)))
(assert (not (= x12 (_ bv4 8))))
(assert (not (= x12 (_ bv2 8))))
(assert (not (= x20 (_ bv4 8))))
(assert (not (= x20 (_ bv2 8))))
(assert (not (= (_ bv4 8) (_ bv2 8))))
(assert (not (= (_ bv7 8) (_ bv6 8))))
(assert (not (= (_ bv7 8) x05)))
(assert (not (= (_ bv7 8) (_ bv8 8))))
(assert (not (= (_ bv7 8) x14)))
(assert (not (= (_ bv7 8) x15)))
(assert (not (= (_ bv7 8) x23)))
(assert (not (= (_ bv7 8) x24)))
(assert (not (= (_ bv7 8) (_ bv1 8))))
(assert (not (= (_ bv6 8) x05)))
(assert (not (= (_ bv6 8) (_ bv8 8))))
(assert (not (= (_ bv6 8) x14)))
(assert (not (= (_ bv6 8) x15)))
(assert (not (= (_ bv6 8) x23)))
(assert (not (= (_ bv6 8) x24)))
(assert (not (= (_ bv6 8) (_ bv1 8))))
(assert (not (= x05 (_ bv8 8))))
(assert (not (= x05 x14)))
(assert (not (= x05 x15)))
(assert (not (= x05 x23)))
(assert (not (= x05 x24)))
(assert (not (= x05 (_ bv1 8))))
(assert (not (= (_ bv8 8) x14)))
(assert (not (= (_ bv8 8) x15)))
(assert (not (= (_ bv8 8) x23)))
(assert (not (= (_ bv8 8) x24)))
(assert (not (= (_ bv8 8) (_ bv1 8))))
(assert (not (= x14 x15)))
(assert (not (= x14 x23)))
(assert (not (= x14 x24)))
(assert (not (= x14 (_ bv1 8))))
(assert (not (= x15 x23)))
(assert (not (= x15 x24)))
(assert (not (= x15 (_ bv1 8))))
(assert (not (= x23 x24)))
(assert (not (= x23 (_ bv1 8))))
(assert (not (= x24 (_ bv1 8))))
(assert (not (= x06 (_ bv9 8))))
(assert (not (= x06 x08)))
(assert (not (= x06 x16)))
(assert (not (= x06 x17)))
(assert (not (= x06 (_ bv3 8))))
(assert (not (= x06 (_ bv5 8))))
(assert (not (= x06 x27)))
(assert (not (= x06 x28)))
(assert (not (= (_ bv9 8) x08)))
(assert (not (= (_ bv9 8) x16)))
(assert (not (= (_ bv9 8) x17)))
(assert (not (= (_ bv9 8) (_ bv3 8))))
(assert (not (= (_ bv9 8) (_ bv5 8))))
(assert (not (= (_ bv9 8) x27)))
(assert (not (= (_ bv9 8) x28)))
(assert (not (= x08 x16)))
(assert (not (= x08 x17)))
(assert (not (= x08 (_ bv3 8))))
(assert (not (= x08 (_ bv5 8))))
(assert (not (= x08 x27)))
(assert (not (= x08 x28)))
(assert (not (= x16 x17)))
(assert (not (= x16 (_ bv3 8))))
(assert (not (= x16 (_ bv5 8))))
(assert (not (= x16 x27)))
(assert (not (= x16 x28)))
(assert (not (= x17 (_ bv3 8))))
(assert (not (= x17 (_ bv5 8))))
(assert (not (= x17 x27)))
(assert (not (= x17 x28)))
(assert (not (= (_ bv3 8) (_ bv5 8))))
(assert (not (= (_ bv3 8) x27)))
(assert (not (= (_ bv3 8) x28)))
(assert (not (= (_ bv5 8) x27)))
(assert (not (= (_ bv5 8) x28)))
(assert (not (= x27 x28)))
(assert (not (= x30 x31)))
(assert (not (= x30 x32)))
(assert (not (= x30 (_ bv9 8))))
(assert (not (= x30 x41)))
(assert (not (= x30 (_ bv4 8))))
(assert (not (= x30 x50)))
(assert (not (= x30 (_ bv1 8))))
(assert (not (= x30 x52)))
(assert (not (= x31 x32)))
(assert (not (= x31 (_ bv9 8))))
(assert (not (= x31 x41)))
(assert (not (= x31 (_ bv4 8))))
(assert (not (= x31 x50)))
(assert (not (= x31 (_ bv1 8))))
(assert (not (= x31 x52)))
(assert (not (= x32 (_ bv9 8))))
(assert (not (= x32 x41)))
(assert (not (= x32 (_ bv4 8))))
(assert (not (= x32 x50)))
(assert (not (= x32 (_ bv1 8))))
(assert (not (= x32 x52)))
(assert (not (= (_ bv9 8) x41)))
(assert (not (= (_ bv9 8) (_ bv4 8))))
(assert (not (= (_ bv9 8) x50)))
(assert (not (= (_ bv9 8) (_ bv1 8))))
(assert (not (= (_ bv9 8) x52)))
(assert (not (= x41 (_ bv4 8))))
(assert (not (= x41 x50)))
(assert (not (= x41 (_ bv1 8))))
(assert (not (= x41 x52)))
(assert (not (= (_ bv4 8) x50)))
(assert (not (= (_ bv4 8) (_ bv1 8))))
(assert (not (= (_ bv4 8) x52)))
(assert (not (= x50 (_ bv1 8))))
(assert (not (= x50 x52)))
(assert (not (= (_ bv1 8) x52)))
(assert (not (= x33 x34)))
(assert (not (= x33 x35)))
(assert (not (= x33 x43)))
(assert (not (= x33 (_ bv7 8))))
(assert (not (= x33 x45)))
(assert (not (= x33 (_ bv6 8))))
(assert (not (= x33 (_ bv8 8))))
(assert (not (= x33 x55)))
(assert (not (= x34 x35)))
(assert (not (= x34 x43)))
(assert (not (= x34 (_ bv7 8))))
(assert (not (= x34 x45)))
(assert (not (= x34 (_ bv6 8))))
(assert (not (= x34 (_ bv8 8))))
(assert (not (= x34 x55)))
(assert (not (= x35 x43)))
(assert (not (= x35 (_ bv7 8))))
(assert (not (= x35 x45)))
(assert (not (= x35 (_ bv6 8))))
(assert (not (= x35 (_ bv8 8))))
(assert (not (= x35 x55)))
(assert (not (= x43 (_ bv7 8))))
(assert (not (= x43 x45)))
(assert (not (= x43 (_ bv6 8))))
(assert (not (= x43 (_ bv8 8))))
(assert (not (= x43 x55)))
(assert (not (= (_ bv7 8) x45)))
(assert (not (= (_ bv7 8) (_ bv6 8))))
(assert (not (= (_ bv7 8) (_ bv8 8))))
(assert (not (= (_ bv7 8) x55)))
(assert (not (= x45 (_ bv6 8))))
(assert (not (= x45 (_ bv8 8))))
(assert (not (= x45 x55)))
(assert (not (= (_ bv6 8) (_ bv8 8))))
(assert (not (= (_ bv6 8) x55)))
(assert (not (= (_ bv8 8) x55)))
(assert (not (= x36 (_ bv3 8))))
(assert (not (= x36 (_ bv4 8))))
(assert (not (= x36 (_ bv2 8))))
(assert (not (= x36 x47)))
(assert (not (= x36 (_ bv6 8))))
(assert (not (= x36 (_ bv9 8))))
(assert (not (= x36 x57)))
(assert (not (= x36 x58)))
(assert (not (= (_ bv3 8) (_ bv4 8))))
(assert (not (= (_ bv3 8) (_ bv2 8))))
(assert (not (= (_ bv3 8) x47)))
(assert (not (= (_ bv3 8) (_ bv6 8))))
(assert (not (= (_ bv3 8) (_ bv9 8))))
(assert (not (= (_ bv3 8) x57)))
(assert (not (= (_ bv3 8) x58)))
(assert (not (= (_ bv4 8) (_ bv2 8))))
(assert (not (= (_ bv4 8) x47)))
(assert (not (= (_ bv4 8) (_ bv6 8))))
(assert (not (= (_ bv4 8) (_ bv9 8))))
(assert (not (= (_ bv4 8) x57)))
(assert (not (= (_ bv4 8) x58)))
(assert (not (= (_ bv2 8) x47)))
(assert (not (= (_ bv2 8) (_ bv6 8))))
(assert (not (= (_ bv2 8) (_ bv9 8))))
(assert (not (= (_ bv2 8) x57)))
(assert (not (= (_ bv2 8) x58)))
(assert (not (= x47 (_ bv6 8))))
(assert (not (= x47 (_ bv9 8))))
(assert (not (= x47 x57)))
(assert (not (= x47 x58)))
(assert (not (= (_ bv6 8) (_ bv9 8))))
(assert (not (= (_ bv6 8) x57)))
(assert (not (= (_ bv6 8) x58)))
(assert (not (= (_ bv9 8) x57)))
(assert (not (= (_ bv9 8) x58)))
(assert (not (= x57 x58)))
(assert (not (= (_ bv8 8) x61)))
(assert (not (= (_ bv8 8) x62)))
(assert (not (= (_ bv8 8) (_ bv6 8))))
(assert (not (= (_ bv8 8) (_ bv3 8))))
(assert (not (= (_ bv8 8) x72)))
(assert (not (= (_ bv8 8) x80)))
(assert (not (= (_ bv8 8) x81)))
(assert (not (= (_ bv8 8) (_ bv7 8))))
(assert (not (= x61 x62)))
(assert (not (= x61 (_ bv6 8))))
(assert (not (= x61 (_ bv3 8))))
(assert (not (= x61 x72)))
(assert (not (= x61 x80)))
(assert (not (= x61 x81)))
(assert (not (= x61 (_ bv7 8))))
(assert (not (= x62 (_ bv6 8))))
(assert (not (= x62 (_ bv3 8))))
(assert (not (= x62 x72)))
(assert (not (= x62 x80)))
(assert (not (= x62 x81)))
(assert (not (= x62 (_ bv7 8))))
(assert (not (= (_ bv6 8) (_ bv3 8))))
(assert (not (= (_ bv6 8) x72)))
(assert (not (= (_ bv6 8) x80)))
(assert (not (= (_ bv6 8) x81)))
(assert (not (= (_ bv6 8) (_ bv7 8))))
(assert (not (= (_ bv3 8) x72)))
(assert (not (= (_ bv3 8) x80)))
(assert (not (= (_ bv3 8) x81)))
(assert (not (= (_ bv3 8) (_ bv7 8))))
(assert (not (= x72 x80)))
(assert (not (= x72 x81)))
(assert (not (= x72 (_ bv7 8))))
(assert (not (= x80 x81)))
(assert (not (= x80 (_ bv7 8))))
(assert (not (= x81 (_ bv7 8))))
(assert (not (= (_ bv9 8) x64)))
(assert (not (= (_ bv9 8) x65)))
(assert (not (= (_ bv9 8) x73)))
(assert (not (= (_ bv9 8) (_ bv2 8))))
(assert (not (= (_ bv9 8) x75)))
(assert (not (= (_ bv9 8) x83)))
(assert (not (= (_ bv9 8) x84)))
(assert (not (= (_ bv9 8) x85)))
(assert (not (= x64 x65)))
(assert (not (= x64 x73)))
(assert (not (= x64 (_ bv2 8))))
(assert (not (= x64 x75)))
(assert (not (= x64 x83)))
(assert (not (= x64 x84)))
(assert (not (= x64 x85)))
(assert (not (= x65 x73)))
(assert (not (= x65 (_ bv2 8))))
(assert (not (= x65 x75)))
(assert (not (= x65 x83)))
(assert (not (= x65 x84)))
(assert (not (= x65 x85)))
(assert (not (= x73 (_ bv2 8))))
(assert (not (= x73 x75)))
(assert (not (= x73 x83)))
(assert (not (= x73 x84)))
(assert (not (= x73 x85)))
(assert (not (= (_ bv2 8) x75)))
(assert (not (= (_ bv2 8) x83)))
(assert (not (= (_ bv2 8) x84)))
(assert (not (= (_ bv2 8) x85)))
(assert (not (= x75 x83)))
(assert (not (= x75 x84)))
(assert (not (= x75 x85)))
(assert (not (= x83 x84)))
(assert (not (= x83 x85)))
(assert (not (= x84 x85)))
(assert (not (= (_ bv3 8) (_ bv4 8))))
(assert (not (= (_ bv3 8) x68)))
(assert (not (= (_ bv3 8) (_ bv1 8))))
(assert (not (= (_ bv3 8) (_ bv8 8))))
(assert (not (= (_ bv3 8) (_ bv9 8))))
(assert (not (= (_ bv3 8) x86)))
(assert (not (= (_ bv3 8) (_ bv5 8))))
(assert (not (= (_ bv3 8) x88)))
(assert (not (= (_ bv4 8) x68)))
(assert (not (= (_ bv4 8) (_ bv1 8))))
(assert (not (= (_ bv4 8) (_ bv8 8))))
(assert (not (= (_ bv4 8) (_ bv9 8))))
(assert (not (= (_ bv4 8) x86)))
(assert (not (= (_ bv4 8) (_ bv5 8))))
(assert (not (= (_ bv4 8) x88)))
(assert (not (= x68 (_ bv1 8))))
(assert (not (= x68 (_ bv8 8))))
(assert (not (= x68 (_ bv9 8))))
(assert (not (= x68 x86)))
(assert (not (= x68 (_ bv5 8))))
(assert (not (= x68 x88)))
(assert (not (= (_ bv1 8) (_ bv8 8))))
(assert (not (= (_ bv1 8) (_ bv9 8))))
(assert (not (= (_ bv1 8) x86)))
(assert (not (= (_ bv1 8) (_ bv5 8))))
(assert (not (= (_ bv1 8) x88)))
(assert (not (= (_ bv8 8) (_ bv9 8))))
(assert (not (= (_ bv8 8) x86)))
(assert (not (= (_ bv8 8) (_ bv5 8))))
(assert (not (= (_ bv8 8) x88)))
(assert (not (= (_ bv9 8) x86)))
(assert (not (= (_ bv9 8) (_ bv5 8))))
(assert (not (= (_ bv9 8) x88)))
(assert (not (= x86 (_ bv5 8))))
(assert (not (= x86 x88)))
(assert (not (= (_ bv5 8) x88)))
(check-sat)
(exit)
